3094
3232
3319
3183
3335
3838
3548
3758
3680
3476
4243
4516
4739
4041
4070
4512
4810
4667
4842
4552
5409
5404
5198
5245
4642
5694
5973
5728
5993
5824
6565
5983
6197
6337
6053
6969
7206
7198
6756
7389
4295
4562
4657
4792
4406
5352
5103
4881
4934
5046
6328
6450
6545
6489
6262
7101
6959
6771
7024
6762
8195
8207
8422
8133
8073
9022
8776
8929
8774
8993
10116
10696
10221
10095
10395
10513
10948
11365
10950
10725
